mapa = [|
         9,9,9,9,9,9,9,9,9|
         9,9,9,9,8,8,8,8,9|
         9,0,0,8,8,8,1,8,9|
         9,4,1,9,4,8,1,8,9|
         9,0,0,8,8,8,1,8,9|
         9,9,9,9,8,8,8,8,9|
         9,9,9,9,9,9,9,9,9|];
dimx = 7;
dimy = 9;
filav = 4;
colav = 6;
